spring_18/ind_study/IWLS18/exps/ets18_exps/tianka_ckt/exp_2/it_1/tianka.cnf
p cnf 26 56
-4 -1 -2 0
4 1 -2 0
4 -1 2 0
-4 1 2 0
-5 2 3 0
5 -2 0
5 -3 0
-6 -3 -3 0
6 3 0
6 3 0
7 -5 -3 0
-7 5 0
-7 3 0
-8 4 7 0
8 -4 0
8 -7 0
-9 -7 -6 0
9 7 -6 0
9 -7 6 0
-9 7 6 0
10 -8 -9 0
-10 8 0
-10 9 0
1 -19 11 0
1 19 -11 0
-1 -20 11 0
-1 20 -11 0
1 -21 12 0
1 21 -12 0
-1 -22 12 0
-1 22 -12 0
1 -23 13 0
1 23 -13 0
-1 -24 13 0
-1 24 -13 0
1 -25 14 0
1 25 -14 0
-1 -26 14 0
-1 26 -14 0
2 -11 15 0
2 11 -15 0
-2 -12 15 0
-2 12 -15 0
2 -13 16 0
2 13 -16 0
-2 -14 16 0
-2 14 -16 0
3 -15 17 0
3 15 -17 0
-3 -16 17 0
-3 16 -17 0
-18 -10 -17 0
18 10 -17 0
18 -10 17 0
-18 10 17 0
18 0
